benchmarks_CP/INST_36x36/25/inst36x36_25_2.dzn
S=6;
start=[|
14,	-1,	-1,	-1,	35,	16,	-1,	-1,	-1,	-1,	-1,	-1,	-1,	-1,	-1,	5,	-1,	28,	36,	-1,	-1,	-1,	-1,	-1,	29,	-1,	32,	-1,	7,	-1,	-1,	-1,	-1,	-1,	-1,	-1|
-1,	29,	-1,	-1,	28,	33,	20,	-1,	-1,	13,	23,	-1,	-1,	35,	-1,	31,	16,	-1,	-1,	25,	-1,	9,	-1,	-1,	-1,	-1,	21,	-1,	-1,	-1,	-1,	-1,	22,	7,	12,	32|
-1,	26,	-1,	36,	-1,	12,	-1,	-1,	-1,	8,	-1,	-1,	-1,	27,	-1,	3,	21,	10,	-1,	-1,	-1,	-1,	-1,	-1,	-1,	-1,	-1,	-1,	-1,	-1,	-1,	6,	-1,	-1,	-1,	-1|
-1,	32,	-1,	-1,	-1,	-1,	-1,	-1,	-1,	-1,	-1,	-1,	-1,	-1,	-1,	-1,	-1,	-1,	-1,	-1,	5,	-1,	-1,	-1,	19,	-1,	-1,	23,	-1,	-1,	15,	-1,	-1,	21,	-1,	-1|
-1,	-1,	-1,	-1,	-1,	23,	-1,	-1,	-1,	19,	-1,	-1,	-1,	32,	-1,	30,	-1,	34,	-1,	-1,	31,	-1,	-1,	-1,	-1,	-1,	20,	-1,	17,	-1,	8,	14,	29,	-1,	-1,	-1|
-1,	31,	-1,	-1,	-1,	18,	-1,	-1,	-1,	-1,	27,	-1,	-1,	-1,	-1,	-1,	-1,	-1,	10,	-1,	-1,	-1,	-1,	-1,	-1,	22,	-1,	-1,	-1,	-1,	-1,	33,	-1,	-1,	30,	-1|
-1,	-1,	32,	-1,	-1,	9,	-1,	-1,	-1,	25,	-1,	-1,	-1,	-1,	-1,	-1,	-1,	23,	-1,	-1,	-1,	-1,	-1,	5,	-1,	18,	-1,	-1,	-1,	-1,	-1,	-1,	-1,	20,	36,	-1|
-1,	-1,	-1,	3,	25,	-1,	-1,	-1,	-1,	15,	10,	9,	1,	-1,	-1,	-1,	32,	-1,	-1,	-1,	-1,	-1,	24,	14,	-1,	12,	-1,	-1,	26,	-1,	-1,	-1,	-1,	-1,	-1,	-1|
-1,	-1,	20,	-1,	-1,	-1,	-1,	12,	-1,	-1,	32,	-1,	-1,	29,	-1,	-1,	-1,	-1,	9,	-1,	-1,	-1,	-1,	28,	-1,	-1,	-1,	-1,	-1,	-1,	11,	-1,	31,	-1,	27,	-1|
-1,	-1,	-1,	-1,	-1,	-1,	-1,	-1,	-1,	-1,	22,	26,	-1,	19,	-1,	-1,	-1,	-1,	-1,	-1,	36,	34,	-1,	11,	-1,	-1,	-1,	31,	-1,	-1,	7,	-1,	33,	-1,	-1,	23|
-1,	-1,	-1,	-1,	-1,	-1,	-1,	1,	16,	-1,	-1,	36,	-1,	-1,	33,	-1,	7,	25,	-1,	23,	21,	10,	-1,	-1,	-1,	-1,	-1,	3,	32,	2,	-1,	-1,	-1,	-1,	-1,	-1|
-1,	-1,	16,	-1,	-1,	-1,	-1,	-1,	-1,	-1,	19,	-1,	-1,	-1,	-1,	13,	-1,	-1,	-1,	-1,	-1,	-1,	-1,	-1,	-1,	-1,	23,	7,	-1,	25,	-1,	-1,	-1,	-1,	15,	-1|
25,	23,	-1,	12,	6,	-1,	-1,	14,	36,	21,	-1,	-1,	8,	-1,	4,	-1,	20,	-1,	-1,	-1,	-1,	27,	15,	-1,	-1,	-1,	-1,	-1,	-1,	-1,	-1,	29,	18,	-1,	-1,	-1|
-1,	15,	-1,	22,	-1,	-1,	-1,	-1,	-1,	-1,	-1,	28,	30,	-1,	9,	-1,	-1,	-1,	11,	19,	33,	35,	-1,	-1,	-1,	-1,	-1,	-1,	-1,	-1,	-1,	-1,	-1,	31,	-1,	-1|
-1,	21,	-1,	-1,	11,	-1,	-1,	29,	-1,	-1,	-1,	-1,	-1,	-1,	-1,	-1,	14,	31,	-1,	-1,	24,	-1,	-1,	-1,	-1,	-1,	35,	-1,	12,	-1,	-1,	-1,	-1,	-1,	28,	33|
-1,	34,	-1,	-1,	2,	1,	-1,	-1,	-1,	-1,	-1,	-1,	-1,	-1,	-1,	11,	12,	-1,	-1,	-1,	-1,	-1,	-1,	-1,	15,	-1,	9,	-1,	-1,	-1,	-1,	-1,	-1,	14,	-1,	-1|
-1,	-1,	-1,	-1,	-1,	-1,	17,	32,	-1,	11,	5,	-1,	21,	-1,	-1,	-1,	-1,	-1,	-1,	-1,	28,	18,	-1,	-1,	-1,	-1,	-1,	-1,	-1,	-1,	-1,	-1,	9,	-1,	-1,	-1|
17,	-1,	-1,	-1,	-1,	30,	-1,	-1,	-1,	-1,	-1,	-1,	-1,	-1,	28,	-1,	-1,	-1,	-1,	14,	20,	-1,	-1,	-1,	-1,	-1,	8,	-1,	-1,	-1,	-1,	24,	-1,	32,	-1,	11|
-1,	-1,	-1,	-1,	-1,	-1,	6,	-1,	-1,	-1,	-1,	14,	3,	-1,	-1,	-1,	-1,	-1,	-1,	-1,	7,	-1,	-1,	-1,	-1,	-1,	-1,	-1,	-1,	-1,	-1,	10,	-1,	-1,	-1,	-1|
23,	-1,	-1,	-1,	12,	31,	-1,	-1,	-1,	-1,	-1,	-1,	-1,	-1,	-1,	-1,	2,	-1,	34,	-1,	-1,	-1,	-1,	-1,	17,	-1,	-1,	-1,	25,	-1,	-1,	-1,	-1,	-1,	-1,	36|
-1,	24,	-1,	-1,	-1,	-1,	-1,	-1,	-1,	-1,	-1,	-1,	-1,	-1,	-1,	-1,	-1,	32,	-1,	-1,	-1,	-1,	-1,	-1,	-1,	-1,	-1,	-1,	-1,	-1,	-1,	31,	-1,	-1,	29,	-1|
-1,	-1,	-1,	-1,	-1,	-1,	-1,	-1,	-1,	-1,	-1,	-1,	-1,	-1,	-1,	-1,	28,	-1,	-1,	-1,	10,	-1,	19,	-1,	-1,	-1,	-1,	-1,	-1,	-1,	-1,	-1,	-1,	-1,	21,	-1|
-1,	-1,	-1,	-1,	-1,	-1,	-1,	-1,	24,	-1,	-1,	8,	-1,	-1,	19,	-1,	-1,	-1,	-1,	13,	12,	-1,	31,	35,	-1,	-1,	-1,	2,	29,	-1,	-1,	-1,	-1,	26,	-1,	-1|
-1,	-1,	-1,	-1,	-1,	-1,	-1,	-1,	-1,	-1,	-1,	-1,	-1,	-1,	-1,	1,	-1,	11,	5,	3,	-1,	-1,	20,	8,	-1,	14,	-1,	-1,	27,	-1,	28,	-1,	7,	-1,	-1,	12|
-1,	-1,	-1,	-1,	-1,	-1,	-1,	23,	-1,	-1,	-1,	-1,	-1,	-1,	-1,	-1,	29,	8,	-1,	16,	-1,	-1,	3,	-1,	-1,	-1,	-1,	35,	-1,	-1,	-1,	19,	-1,	-1,	-1,	-1|
-1,	-1,	-1,	35,	-1,	-1,	-1,	-1,	-1,	-1,	-1,	18,	-1,	-1,	21,	-1,	13,	-1,	-1,	33,	-1,	12,	-1,	-1,	-1,	-1,	-1,	-1,	-1,	34,	-1,	-1,	-1,	-1,	-1,	-1|
19,	-1,	-1,	-1,	-1,	14,	-1,	8,	-1,	30,	-1,	2,	-1,	11,	5,	24,	-1,	-1,	-1,	-1,	-1,	32,	9,	-1,	-1,	-1,	-1,	-1,	-1,	-1,	33,	-1,	12,	-1,	3,	-1|
-1,	-1,	2,	31,	-1,	3,	13,	-1,	-1,	-1,	-1,	-1,	34,	-1,	-1,	6,	-1,	-1,	-1,	-1,	19,	-1,	26,	-1,	-1,	-1,	-1,	-1,	-1,	-1,	-1,	7,	-1,	11,	-1,	-1|
15,	-1,	22,	-1,	-1,	5,	-1,	-1,	9,	-1,	25,	24,	-1,	-1,	-1,	17,	-1,	-1,	-1,	-1,	-1,	-1,	-1,	-1,	-1,	-1,	-1,	-1,	-1,	-1,	-1,	32,	28,	-1,	-1,	-1|
8,	-1,	-1,	-1,	-1,	25,	-1,	-1,	-1,	-1,	-1,	-1,	-1,	10,	-1,	12,	-1,	30,	15,	-1,	-1,	-1,	-1,	-1,	-1,	-1,	-1,	20,	-1,	31,	-1,	-1,	-1,	-1,	5,	-1|
-1,	25,	-1,	-1,	-1,	17,	-1,	-1,	-1,	-1,	-1,	-1,	-1,	-1,	-1,	-1,	-1,	-1,	-1,	-1,	-1,	-1,	23,	-1,	-1,	-1,	-1,	-1,	33,	35,	27,	-1,	10,	-1,	-1,	-1|
-1,	-1,	33,	-1,	19,	34,	-1,	31,	-1,	-1,	-1,	27,	-1,	-1,	2,	-1,	-1,	-1,	-1,	-1,	-1,	-1,	-1,	-1,	-1,	-1,	-1,	-1,	-1,	-1,	1,	-1,	-1,	-1,	-1,	-1|
-1,	13,	-1,	-1,	-1,	-1,	-1,	-1,	-1,	-1,	-1,	-1,	-1,	-1,	23,	8,	-1,	-1,	33,	-1,	18,	-1,	-1,	-1,	-1,	-1,	-1,	-1,	-1,	-1,	-1,	35,	19,	-1,	-1,	-1|
-1,	4,	-1,	-1,	-1,	2,	-1,	18,	-1,	6,	14,	-1,	-1,	13,	29,	35,	10,	-1,	31,	-1,	-1,	-1,	22,	3,	-1,	-1,	1,	-1,	-1,	-1,	9,	12,	36,	-1,	-1,	-1|
-1,	-1,	9,	-1,	14,	-1,	-1,	36,	-1,	-1,	-1,	22,	-1,	-1,	-1,	-1,	-1,	24,	25,	-1,	-1,	-1,	-1,	-1,	-1,	-1,	-1,	-1,	-1,	-1,	-1,	-1,	-1,	-1,	4,	16|
-1,	-1,	-1,	-1,	-1,	27,	-1,	7,	-1,	-1,	26,	23,	-1,	-1,	-1,	16,	-1,	-1,	-1,	-1,	-1,	-1,	-1,	-1,	12,	-1,	13,	-1,	-1,	-1,	-1,	-1,	-1,	-1,	6,	-1|];
